p cnf 12 30
1 2 0
3 4 0
5 6 0
7 8 0
9 10 0
11 12 0
-1 -2 0
-3 -4 0
-5 -6 0
-7 -8 0
-9 -10 0
-11 -12 0
-1 -7 0
-2 -8 0
-1 -9 0
-2 -10 0
-1 -11 0
-2 -12 0
-3 -7 0
-4 -8 0
-3 -9 0
-4 -10 0
-3 -11 0
-4 -12 0
-5 -7 0
-6 -8 0
-5 -9 0
-6 -10 0
-5 -11 0
-6 -12 0
